% MIT License
%
% Copyright (c) 2021 Johan Ludde Wessén
%
% Permission is hereby granted, free of charge, to any person obtaining 
% a copy of this software and associated documentation files (the "Software"),
% to deal in the Software without restriction, including without limitation 
% the rights to use, copy, modify, merge, publish, distribute, sublicense, 
% and/or sell copies of the Software, and to permit persons to whom the 
% Software is furnished to do so, subject to the following conditions:
% 
% The above copyright notice and this permission notice shall be included 
% in all copies or substantial portions of the Software.
%
% THE SOFTWARE IS PROVIDED "AS IS", WITHOUT WARRANTY OF ANY KIND, 
% EXPRESS OR IMPLIED, INCLUDING BUT NOT LIMITED TO THE WARRANTIES OF
% MERCHANTABILITY, FITNESS FOR A PARTICULAR PURPOSE AND
% NONINFRINGEMENT. IN NO EVENT SHALL THE AUTHORS OR COPYRIGHT HOLDERS BE
% LIABLE FOR ANY CLAIM, DAMAGES OR OTHER LIABILITY, WHETHER IN AN ACTION
% OF CONTRACT, TORT OR OTHERWISE, ARISING FROM, OUT OF OR IN CONNECTION
% WITH THE SOFTWARE OR THE USE OR OTHER DEALINGS IN THE SOFTWARE.

%-----------------------------------------------------------------------------%
% Dual Arm Multi Capacity Multi Tool Scheduling / Routing
% Assembly Configuration
% Auto Generated by python script, authored by Johan Ludde Wessen 
%-----------------------------------------------------------------------------%


task_durations = [|27, 28, 30, 31, 24, 33, 29, 27, 23, 51, 42, 51, 47, 45, 43, 47, 62, 39, 24, 27, 27,  7,  4,  5,  7,  5,  4,  6,  5
                  |27, 29, 25, 29, 29, 29, 30, 28, 25, 46, 54, 50, 47, 42, 46, 56, 58, 47, 30, 28, 30,  6,  4,  6,  8,  6,  4,  7,  6
                  |];


TRAY_TASKS = 1..7;
CAMERA_TASKS = 19..21;
OUTPUT_TASKS = { 18 };


empty_gripper_tasks = 22..29;


gripper_pick_tasks_orders = [|1, 10, -1
|2, 11, -1
|3, 12, -1
|4, 13, -1
|8, 17, -1
|9, 18, -1
|];

suction_pick_tasks_orders = [|5, 19, 14, -1
|6, 20, 15, -1
|7, 21, 16, -1
|];

fixture_task_orders = [|14, 26, 10, 22, 15, 27, 11, 23, 8, -1
|12, 24, 16, 28, 13, 25, 17, 29, 9, -1
|];

